c User generated cnf file
p cnf 13 16
7 1 -3 0 
12 -8 8 0 
-1 6 1 0 
9 -13 3 0 
-10 8 5 0 
10 4 -9 0 
4 -9 3 0 
-10 4 10 0 
2 4 -3 0 
-7 4 12 0 
1 12 -1 0 
12 13 -2 0 
5 11 -12 0 
8 13 -12 0 
-7 5 9 0 
13 -12 5 0 
